Route #1: 41 6 25
Route #2: 20 30 1 42 36
Route #3: 16 9 26 50 12 23 45 4 38
Route #4: 49 17 22 15 19 32 34 13 46 48
Route #5: 40 18 3 11 28 24 31 39 14 21
Route #6: 27 8 5 51 29 10 44
Route #7: 47 37 35 7 43 33 2
cost 818.8401489257812